c
p cnf 16 24
-11 -14 0
-5 10 0
15 -11 0
13 -5 0
-6 13 0
5 -12 0
-1 4 0
-4 -1 0
2 -4 0
-13 -2 0
-1 -16 0
3 -13 0
9 15 0
12 -14 0
8 -15 0
-13 2 0
14 11 0
-4 -5 0
11 -16 0
-5 -7 0
5 -15 0
1 7 0
6 -11 0
-14 10 0
